  lattice_vector         0.00000000        5.42000000        5.42000000
  lattice_vector         5.42000000        0.00000000        5.42000000
  lattice_vector         5.42000000        5.42000000        0.00000000
 
            atom         0.00000000        0.00000000        0.00000000  Si                  
            atom         1.35500000        1.35500000        1.35500000  Si                  
            atom         2.71000000        2.71000000        0.00000000  Si                  
            atom         4.06500000        4.06500000        1.35500000  Si                  
            atom         2.71000000        0.00000000        2.71000000  Si                  
            atom         4.06500000        1.35500000        4.06500000  Si                  
            atom         5.42000000        2.71000000        2.71000000  Si                  
            atom         6.77500000        4.06500000        4.06500000  Si                  
            atom         0.00000000        2.71000000        2.71000000  Si                  
            atom         1.35500000        4.06500000        4.06500000  Si                  
            atom         2.71000000        5.42000000        2.71000000  Si                  
            atom         4.06500000        6.77500000        4.06500000  Si                  
            atom         2.71000000        2.71000000        5.42000000  Si                  
            atom         4.06500000        4.06500000        6.77500000  Si                  
            atom         5.42000000        5.42000000        5.42000000  Si                  
            atom         6.77500000        6.77500000        6.77500000  Si                  
